50
2659

294 137
559 243
556 903
656 467
531 719
789 692
835 168
899 294
784 102
251 188
180 32
142 153
567 75
105 267
562 244
566 555
954 427
458 613
737 4
797 802
600 143
951 407
668 599
887 636
166 822
685 977
204 72
899 429
379 35
549 167
193 90
796 119
883 742
867 378
458 812
570 435
299 4
204 510
735 370
669 88
727 820
862 78
845 495
225 62
306 643
845 627
646 977
472 956
689 663
756 871
